% Auto-generated by scripts/generate_dzn.py
% problem_type   = regex
% instance       = regex_22
% source_json    = instances_json/1_medium_blowup/regex_22.json
% blowup         = 6.111111111111111
% representation = NFA

mode = 1;

var_count = 24;
Q = 9;
S = 2;
q0 = 1;
F = {9};
d_dfa = array2d(1..9, 1..2, [
  0, 0,
  0, 0,
  0, 0,
  0, 0,
  0, 0,
  0, 0,
  0, 0,
  0, 0,
  0, 0
]);
d_nfa = array2d(1..9, 1..2, [
  {1, 2}, {1},
  {}, {3},
  {4}, {4},
  {5}, {5},
  {6}, {6},
  {7}, {7},
  {8}, {8},
  {9}, {9},
  {}, {}
]);
